c File: flat50_3_0.col
c
c SOURCE: Joseph Culberson (joe@cs.ualberta.ca)
c DESCRIPTION: Quasi-random coloring problem
c              generated with flatness = 0
c                             probability = 0.139
c                             known coloring = 3
c                             random seed = 1874
c              Creation Date:  Tue Jun  9 12:20:03 1998
c Maximum degree = 8 Minimum degree = 1
c p edge 50 115
c cnf created by edge2cnf
p cnf 150 545
-1 -2 0
-1 -3 0
-2 -3 0
1 2 3 0
-4 -5 0
-4 -6 0
-5 -6 0
4 5 6 0
-7 -8 0
-7 -9 0
-8 -9 0
7 8 9 0
-10 -11 0
-10 -12 0
-11 -12 0
10 11 12 0
-13 -14 0
-13 -15 0
-14 -15 0
13 14 15 0
-16 -17 0
-16 -18 0
-17 -18 0
16 17 18 0
-19 -20 0
-19 -21 0
-20 -21 0
19 20 21 0
-22 -23 0
-22 -24 0
-23 -24 0
22 23 24 0
-25 -26 0
-25 -27 0
-26 -27 0
25 26 27 0
-28 -29 0
-28 -30 0
-29 -30 0
28 29 30 0
-31 -32 0
-31 -33 0
-32 -33 0
31 32 33 0
-34 -35 0
-34 -36 0
-35 -36 0
34 35 36 0
-37 -38 0
-37 -39 0
-38 -39 0
37 38 39 0
-40 -41 0
-40 -42 0
-41 -42 0
40 41 42 0
-43 -44 0
-43 -45 0
-44 -45 0
43 44 45 0
-46 -47 0
-46 -48 0
-47 -48 0
46 47 48 0
-49 -50 0
-49 -51 0
-50 -51 0
49 50 51 0
-52 -53 0
-52 -54 0
-53 -54 0
52 53 54 0
-55 -56 0
-55 -57 0
-56 -57 0
55 56 57 0
-58 -59 0
-58 -60 0
-59 -60 0
58 59 60 0
-61 -62 0
-61 -63 0
-62 -63 0
61 62 63 0
-64 -65 0
-64 -66 0
-65 -66 0
64 65 66 0
-67 -68 0
-67 -69 0
-68 -69 0
67 68 69 0
-70 -71 0
-70 -72 0
-71 -72 0
70 71 72 0
-73 -74 0
-73 -75 0
-74 -75 0
73 74 75 0
-76 -77 0
-76 -78 0
-77 -78 0
76 77 78 0
-79 -80 0
-79 -81 0
-80 -81 0
79 80 81 0
-82 -83 0
-82 -84 0
-83 -84 0
82 83 84 0
-85 -86 0
-85 -87 0
-86 -87 0
85 86 87 0
-88 -89 0
-88 -90 0
-89 -90 0
88 89 90 0
-91 -92 0
-91 -93 0
-92 -93 0
91 92 93 0
-94 -95 0
-94 -96 0
-95 -96 0
94 95 96 0
-97 -98 0
-97 -99 0
-98 -99 0
97 98 99 0
-100 -101 0
-100 -102 0
-101 -102 0
100 101 102 0
-103 -104 0
-103 -105 0
-104 -105 0
103 104 105 0
-106 -107 0
-106 -108 0
-107 -108 0
106 107 108 0
-109 -110 0
-109 -111 0
-110 -111 0
109 110 111 0
-112 -113 0
-112 -114 0
-113 -114 0
112 113 114 0
-115 -116 0
-115 -117 0
-116 -117 0
115 116 117 0
-118 -119 0
-118 -120 0
-119 -120 0
118 119 120 0
-121 -122 0
-121 -123 0
-122 -123 0
121 122 123 0
-124 -125 0
-124 -126 0
-125 -126 0
124 125 126 0
-127 -128 0
-127 -129 0
-128 -129 0
127 128 129 0
-130 -131 0
-130 -132 0
-131 -132 0
130 131 132 0
-133 -134 0
-133 -135 0
-134 -135 0
133 134 135 0
-136 -137 0
-136 -138 0
-137 -138 0
136 137 138 0
-139 -140 0
-139 -141 0
-140 -141 0
139 140 141 0
-142 -143 0
-142 -144 0
-143 -144 0
142 143 144 0
-145 -146 0
-145 -147 0
-146 -147 0
145 146 147 0
-148 -149 0
-148 -150 0
-149 -150 0
148 149 150 0
-52 -1 0
-53 -2 0
-54 -3 0
-64 -1 0
-65 -2 0
-66 -3 0
-88 -1 0
-89 -2 0
-90 -3 0
-97 -1 0
-98 -2 0
-99 -3 0
-124 -1 0
-125 -2 0
-126 -3 0
-100 -4 0
-101 -5 0
-102 -6 0
-67 -7 0
-68 -8 0
-69 -9 0
-82 -7 0
-83 -8 0
-84 -9 0
-112 -7 0
-113 -8 0
-114 -9 0
-139 -7 0
-140 -8 0
-141 -9 0
-79 -10 0
-80 -11 0
-81 -12 0
-97 -10 0
-98 -11 0
-99 -12 0
-109 -10 0
-110 -11 0
-111 -12 0
-82 -13 0
-83 -14 0
-84 -15 0
-94 -13 0
-95 -14 0
-96 -15 0
-124 -13 0
-125 -14 0
-126 -15 0
-130 -13 0
-131 -14 0
-132 -15 0
-133 -13 0
-134 -14 0
-135 -15 0
-79 -16 0
-80 -17 0
-81 -18 0
-85 -16 0
-86 -17 0
-87 -18 0
-118 -16 0
-119 -17 0
-120 -18 0
-124 -16 0
-125 -17 0
-126 -18 0
-139 -16 0
-140 -17 0
-141 -18 0
-55 -19 0
-56 -20 0
-57 -21 0
-70 -19 0
-71 -20 0
-72 -21 0
-82 -19 0
-83 -20 0
-84 -21 0
-91 -19 0
-92 -20 0
-93 -21 0
-106 -19 0
-107 -20 0
-108 -21 0
-109 -19 0
-110 -20 0
-111 -21 0
-64 -22 0
-65 -23 0
-66 -24 0
-67 -22 0
-68 -23 0
-69 -24 0
-70 -22 0
-71 -23 0
-72 -24 0
-100 -22 0
-101 -23 0
-102 -24 0
-106 -22 0
-107 -23 0
-108 -24 0
-139 -22 0
-140 -23 0
-141 -24 0
-142 -22 0
-143 -23 0
-144 -24 0
-58 -25 0
-59 -26 0
-60 -27 0
-76 -25 0
-77 -26 0
-78 -27 0
-115 -25 0
-116 -26 0
-117 -27 0
-121 -25 0
-122 -26 0
-123 -27 0
-55 -28 0
-56 -29 0
-57 -30 0
-79 -28 0
-80 -29 0
-81 -30 0
-94 -28 0
-95 -29 0
-96 -30 0
-106 -28 0
-107 -29 0
-108 -30 0
-109 -28 0
-110 -29 0
-111 -30 0
-136 -28 0
-137 -29 0
-138 -30 0
-103 -31 0
-104 -32 0
-105 -33 0
-106 -31 0
-107 -32 0
-108 -33 0
-115 -31 0
-116 -32 0
-117 -33 0
-133 -31 0
-134 -32 0
-135 -33 0
-70 -34 0
-71 -35 0
-72 -36 0
-97 -34 0
-98 -35 0
-99 -36 0
-118 -34 0
-119 -35 0
-120 -36 0
-142 -34 0
-143 -35 0
-144 -36 0
-61 -37 0
-62 -38 0
-63 -39 0
-97 -37 0
-98 -38 0
-99 -39 0
-112 -37 0
-113 -38 0
-114 -39 0
-136 -37 0
-137 -38 0
-138 -39 0
-112 -40 0
-113 -41 0
-114 -42 0
-118 -40 0
-119 -41 0
-120 -42 0
-148 -40 0
-149 -41 0
-150 -42 0
-58 -43 0
-59 -44 0
-60 -45 0
-64 -43 0
-65 -44 0
-66 -45 0
-70 -43 0
-71 -44 0
-72 -45 0
-79 -43 0
-80 -44 0
-81 -45 0
-112 -43 0
-113 -44 0
-114 -45 0
-127 -43 0
-128 -44 0
-129 -45 0
-55 -46 0
-56 -47 0
-57 -48 0
-61 -46 0
-62 -47 0
-63 -48 0
-73 -46 0
-74 -47 0
-75 -48 0
-85 -46 0
-86 -47 0
-87 -48 0
-109 -46 0
-110 -47 0
-111 -48 0
-121 -46 0
-122 -47 0
-123 -48 0
-139 -46 0
-140 -47 0
-141 -48 0
-55 -49 0
-56 -50 0
-57 -51 0
-88 -49 0
-89 -50 0
-90 -51 0
-115 -49 0
-116 -50 0
-117 -51 0
-145 -49 0
-146 -50 0
-147 -51 0
-106 -52 0
-107 -53 0
-108 -54 0
-139 -55 0
-140 -56 0
-141 -57 0
-148 -55 0
-149 -56 0
-150 -57 0
-124 -58 0
-125 -59 0
-126 -60 0
-139 -58 0
-140 -59 0
-141 -60 0
-148 -58 0
-149 -59 0
-150 -60 0
-103 -64 0
-104 -65 0
-105 -66 0
-127 -64 0
-128 -65 0
-129 -66 0
-136 -64 0
-137 -65 0
-138 -66 0
-127 -67 0
-128 -68 0
-129 -69 0
-133 -67 0
-134 -68 0
-135 -69 0
-136 -67 0
-137 -68 0
-138 -69 0
-142 -67 0
-143 -68 0
-144 -69 0
-103 -70 0
-104 -71 0
-105 -72 0
-115 -70 0
-116 -71 0
-117 -72 0
-118 -70 0
-119 -71 0
-120 -72 0
-103 -73 0
-104 -74 0
-105 -75 0
-127 -73 0
-128 -74 0
-129 -75 0
-133 -73 0
-134 -74 0
-135 -75 0
-106 -76 0
-107 -77 0
-108 -78 0
-118 -76 0
-119 -77 0
-120 -78 0
-148 -76 0
-149 -77 0
-150 -78 0
-115 -79 0
-116 -80 0
-117 -81 0
-136 -79 0
-137 -80 0
-138 -81 0
-124 -82 0
-125 -83 0
-126 -84 0
-133 -82 0
-134 -83 0
-135 -84 0
-106 -85 0
-107 -86 0
-108 -87 0
-109 -85 0
-110 -86 0
-111 -87 0
-124 -85 0
-125 -86 0
-126 -87 0
-124 -88 0
-125 -89 0
-126 -90 0
-103 -91 0
-104 -92 0
-105 -93 0
-106 -91 0
-107 -92 0
-108 -93 0
-139 -91 0
-140 -92 0
-141 -93 0
-142 -91 0
-143 -92 0
-144 -93 0
-139 -100 0
-140 -101 0
-141 -102 0
-142 -100 0
-143 -101 0
-144 -102 0
-145 -100 0
-146 -101 0
-147 -102 0
